(set-logic HORN)
(declare-fun state (Int Int Int (Array Int Int) Int Int Int Int Int (Array Int Int) Int Bool Bool Bool Int Int Int) Bool)
(assert (forall ((|E_7| Int) (|I_7| Int) (|A_8| Int) (|F_7| (Array Int Int)) (|D_7| Int) (|.y.15| Int) (|.y.16| Int) (|.y.17| Int) (|.y.18| Int) (|.y.19| (Array Int Int)) (|.y.20| Int) (|.loc.21| Bool) (|.loc.22| Bool) (|.loc.23| Bool) (|G_4| Int) (|E_4| Int) (|G_7| Int) (|.loc.36| Bool) (|.loc.37| Bool) (|.loc.35| Bool) (|.y.27| (Array Int Int)) (|.y.26| Int) (|.y.28| Int) (|.y.24| Int) (|.y.25| Int) (|.y.34| Int) (|.y.29| Int) (|.y.33| (Array Int Int)) (|.y.32| Int) (|.y.31| Int) (|.y.30| Int) (|.xtv.1| Int) (|.xtv.2| Int) (|.xtv.3| Int)) (=> (and (and (not .loc.21) (not .loc.22)) (not .loc.23)) (state |E_7| |I_7| |A_8| |F_7| |D_7| |.y.15| |.y.16| |.y.17| |.y.18| |.y.19| |.y.20| |.loc.21| |.loc.22| |.loc.23| |G_4| |E_4| |G_7|))))
(assert (forall ((|E_7| Int) (|I_7| Int) (|A_8| Int) (|F_7| (Array Int Int)) (|D_7| Int) (|.y.15| Int) (|.y.16| Int) (|.y.17| Int) (|.y.18| Int) (|.y.19| (Array Int Int)) (|.y.20| Int) (|.loc.21| Bool) (|.loc.22| Bool) (|.loc.23| Bool) (|G_4| Int) (|E_4| Int) (|G_7| Int) (|.loc.36| Bool) (|.loc.37| Bool) (|.loc.35| Bool) (|.y.27| (Array Int Int)) (|.y.26| Int) (|.y.28| Int) (|.y.24| Int) (|.y.25| Int) (|.y.34| Int) (|.y.29| Int) (|.y.33| (Array Int Int)) (|.y.32| Int) (|.y.31| Int) (|.y.30| Int) (|.xtv.1| Int) (|.xtv.2| Int) (|.xtv.3| Int)) (=> (and (state |E_7| |I_7| |A_8| |F_7| |D_7| |.y.15| |.y.16| |.y.17| |.y.18| |.y.19| |.y.20| |.loc.21| |.loc.22| |.loc.23| |G_4| |E_4| |G_7|) (let ((.def_27 (not .loc.21))) (let ((.def_28 (not .loc.22))) (let ((.def_30 (not .loc.23))) (let ((.def_33 (not .loc.36))) (let ((.def_37 (= I_7 (select F_7 G_7)))) (let ((.def_41 (<= E_7 0))) (let ((.def_51 (not .def_41))) (let ((.def_54 (and (or (not (<= G_7 0)) .def_41) (and (not (<= A_8 D_7)) (and (= (+ E_7 (+ D_7 (* (- 1) G_7))) 0) .def_51))))) (let ((.def_68 (not .loc.35))) (let ((.def_72 (= .y.28 0))) (let ((.def_77 (<= (- 1) (+ .y.15 (* (- 1) .y.20))))) (let ((.def_80 (= E_7 .y.24))) (let ((.def_83 (= I_7 .y.25))) (let ((.def_98 (= (+ D_7 (* (- 1) .y.28)) (- 1)))) (let ((.def_100 (= A_8 .y.26))) (let ((.def_102 (= F_7 .y.27))) (let ((.def_112 (not (<= .y.18 D_7)))) (let ((.def_113 (= .y.16 0))) (let ((.def_126 (not .loc.37))) (let ((.def_177 (not (<= E_4 0)))) (let ((.def_178 (or .def_41 .def_177))) (let ((.def_180 (= D_7 .y.28))) (let ((.def_192 (and .loc.21 .def_28))) (let ((.def_201 (<= .y.15 A_8))) (let ((.def_212 (= .y.15 (select F_7 E_4)))) (let ((.def_232 (= .y.15 .y.29))) (let ((.def_252 (<= I_7 0))) (or (or (or (or (or (or (and (and .def_33 .loc.37) (or (or (and (and .def_28 (and .def_27 (and .loc.23 (and .def_37 .def_54)))) .loc.35) (and (= .y.19 .y.27) (and (= D_7 .y.26) (and (and (and (and (not (= A_8 0)) (and (and .def_30 (and (and .loc.21 .loc.22) .def_68)) .def_72)) .def_77) .def_80) .def_83)))) (and (and (and (and (not .def_37) (and .def_83 (and .def_80 (and .def_68 (and .def_28 (and .def_27 (and .loc.23 .def_54))))))) .def_98) .def_100) .def_102))) (and (= .y.18 .y.34) (and (= .y.17 .y.28) (and (= .y.16 .y.26) (and (= .y.15 .y.25) (and (not (and .def_112 .def_113)) (and (not .def_113) (and (= .y.17 .y.29) (and (= F_7 .y.33) (and (and .def_80 (and .def_30 (and .loc.36 (and .loc.35 (and .loc.22 .def_27))))) .def_126)))))))))) (and (= .y.20 .y.34) (and (and (and (or .def_41 (not (<= G_4 0))) (and (not .def_77) (and (= (+ .y.15 (* (- 1) G_7)) (- 1)) (and (= (+ E_7 (+ (* (- 1) E_4) G_7)) 0) (and (= (+ E_7 (+ .y.15 (* (- 1) G_4))) 0) (and (= (+ .y.15 (* (- 1) .y.29)) (- 1)) (and (= .y.33 (store .y.19 G_4 (select .y.19 E_4))) (and .def_126 (and .def_100 (and .def_83 (and .def_80 (and .def_30 (and .loc.36 (and .loc.35 (and .loc.22 (and .loc.21 .def_51)))))))))))))))) .def_178) .def_180))) (and (= .y.15 .y.32) (and (= D_7 .y.29) (and (= I_7 .y.24) (and (and (= .y.16 .y.31) (and (= .y.30 0) (and .def_126 (and .def_102 (and .def_72 (and .def_30 (and .def_68 (and .loc.36 .def_192)))))))) .def_201))))) (and (= .y.18 .y.32) (and (and (= (+ E_7 (+ D_7 (* (- 1) E_4))) 0) (and (= .y.30 (ite .def_212 1 .y.16)) (and (= .y.31 (ite .def_212 D_7 .y.17)) (and .def_178 (and .def_112 (and .def_113 (and .def_126 (and .def_102 (and .def_98 (and .def_80 (and .def_30 (and .def_68 (and .loc.36 (and .def_27 (and .loc.22 .def_51))))))))))))))) .def_232))) (and (not (<= .y.25 0)) (and (not (<= .y.29 0)) (and (= .y.26 0) (and .def_126 (and .def_80 (and .def_30 (and .def_33 (and (and .def_27 .def_28) .loc.35))))))))) (and (= .y.16 .y.30) (and (not .def_201) (and (or .def_177 .def_252) (and (= (+ I_7 (+ A_8 (* (- 1) E_4))) 0) (and (not .def_252) (and (= (+ A_8 (* (- 1) .y.26)) (- 1)) (and (= .y.27 (store F_7 E_4 G_4)) (and .def_232 (and .def_180 (and .def_126 (and .def_83 (and .def_80 (and .def_30 (and .def_33 (and .loc.35 .def_192)))))))))))))))))))))))))))))))))))))))))))) (state |.y.24| |.y.25| |.y.26| |.y.27| |.y.28| |.y.29| |.y.30| |.y.31| |.y.32| |.y.33| |.y.34| |.loc.35| |.loc.36| |.loc.37| |.xtv.1| |.xtv.2| |.xtv.3|))))
(assert (forall ((|E_7| Int) (|I_7| Int) (|A_8| Int) (|F_7| (Array Int Int)) (|D_7| Int) (|.y.15| Int) (|.y.16| Int) (|.y.17| Int) (|.y.18| Int) (|.y.19| (Array Int Int)) (|.y.20| Int) (|.loc.21| Bool) (|.loc.22| Bool) (|.loc.23| Bool) (|G_4| Int) (|E_4| Int) (|G_7| Int) (|.loc.36| Bool) (|.loc.37| Bool) (|.loc.35| Bool) (|.y.27| (Array Int Int)) (|.y.26| Int) (|.y.28| Int) (|.y.24| Int) (|.y.25| Int) (|.y.34| Int) (|.y.29| Int) (|.y.33| (Array Int Int)) (|.y.32| Int) (|.y.31| Int) (|.y.30| Int) (|.xtv.1| Int) (|.xtv.2| Int) (|.xtv.3| Int)) (=> (state |E_7| |I_7| |A_8| |F_7| |D_7| |.y.15| |.y.16| |.y.17| |.y.18| |.y.19| |.y.20| |.loc.21| |.loc.22| |.loc.23| |G_4| |E_4| |G_7|) (not (and .loc.23 (and .loc.21 (not .loc.22)))))))
(check-sat)
